Timesteps: 1
s UNSATISFIABLE
real 0.10
user 0.00
sys 0.00
Timesteps: 2
s UNSATISFIABLE
real 0.13
user 0.01
sys 0.00
Timesteps: 3
s UNSATISFIABLE
real 0.11
user 0.03
sys 0.00
Timesteps: 4
s UNSATISFIABLE
real 0.11
user 0.06
sys 0.00
Timesteps: 5
s UNSATISFIABLE
real 0.22
user 0.13
sys 0.00
Timesteps: 6
s UNSATISFIABLE
real 0.22
user 0.16
sys 0.00
Timesteps: 7
s UNSATISFIABLE
real 0.42
user 0.35
sys 0.00
Timesteps: 8
s UNSATISFIABLE
real 0.88
user 0.77
sys 0.01
Timesteps: 9
s UNSATISFIABLE
real 1.90
user 1.80
sys 0.01
Timesteps: 10
s UNSATISFIABLE
real 4.13
user 4.00
sys 0.01
Timesteps: 11
s UNSATISFIABLE
real 6.97
user 6.81
sys 0.02
Timesteps: 12
s UNSATISFIABLE
real 7.40
user 7.22
sys 0.02
Timesteps: 13
s UNSATISFIABLE
real 8.71
user 8.52
sys 0.02
Timesteps: 14
s UNSATISFIABLE
real 9.18
user 8.95
sys 0.04
Timesteps: 15
s UNSATISFIABLE
real 10.49
user 10.28
sys 0.02
Timesteps: 16
s UNSATISFIABLE
real 11.33
user 11.06
sys 0.03
Timesteps: 17
s UNSATISFIABLE
real 10.97
user 10.73
sys 0.02
Timesteps: 18
s UNSATISFIABLE
real 13.46
user 13.18
sys 0.04
Timesteps: 19
s UNSATISFIABLE
real 12.38
user 12.11
sys 0.04
Timesteps: 20
s UNSATISFIABLE
real 22.60
user 22.27
sys 0.05
Timesteps: 21
s UNSATISFIABLE
real 28.28
user 27.91
sys 0.06
Timesteps: 22
s UNSATISFIABLE
real 26.08
user 25.71
sys 0.06
Timesteps: 23
s UNSATISFIABLE
real 43.09
user 42.62
sys 0.07
Timesteps: 24
s UNSATISFIABLE
real 46.91
user 46.39
sys 0.10
Timesteps: 25
s UNSATISFIABLE
real 51.55
user 50.98
sys 0.10
Timesteps: 26
s UNSATISFIABLE
real 71.31
user 70.62
sys 0.13
Timesteps: 27
s UNSATISFIABLE
real 61.48
user 60.85
sys 0.13
Timesteps: 28
s UNSATISFIABLE
real 107.30
user 106.42
sys 0.16
Timesteps: 29
s UNSATISFIABLE
real 132.98
user 131.95
sys 0.22
Timesteps: 30
s UNSATISFIABLE
real 148.99
user 147.80
sys 0.23
Timesteps: 31
s UNSATISFIABLE
real 197.82
user 196.51
sys 0.26
Timesteps: 32
s UNSATISFIABLE
real 250.45
user 248.82
sys 0.37
Timesteps: 33
s UNSATISFIABLE
real 263.68
user 262.01
sys 0.37
Timesteps: 34
s UNSATISFIABLE
real 434.95
user 431.84
sys 0.52
Timesteps: 35
s UNSATISFIABLE
real 436.78
user 433.75
sys 0.59
Timesteps: 36
s UNSATISFIABLE
real 588.84
user 585.49
sys 0.75
Timesteps: 37
